[[ 0 -1  0  0  0 -1]
 [ 1  0 -1 -1  0  0]
 [ 0  1  0 -1  0  0]
 [ 0  1  1  0 -1 -1]
 [ 0  0  0  1  0 -1]
 [ 1  0  0  1  1  0]]
min:2x24 9x12 9x21 1x23 2x46 1x32 2x16 2x42 2x43 2x34 2x61 2x64 2x65 1x54 1x45 2x56 ;
 x12 - x21  x16 - x61 = 3;
 x12 - x21  x23 - x32  x24 - x42 = 3;
 x23 - x32  x34 - x43 = 0;
 x24 - x42  x34 - x43  x45 - x54  x46 - x64 = 0;
 x45 - x54  x56 - x65 = 0;
 x16 - x61  x46 - x64  x56 - x65 = 0;

